NAME: ACTUAL_TOURS/amz0118
TYPE: TOUR
COMMENT: RouteID_0c603c8e-4bc4-48d8-a45a-917787bc00b0
DIMENSION: 171
TOUR_SECTION
18
5
60
29
84
168
35
42
2
150
62
31
22
148
107
78
90
26
38
120
159
158
104
30
47
152
41
75
36
115
54
85
114
48
160
98
86
105
124
99
87
149
121
141
146
39
63
163
27
139
128
89
125
55
133
117
155
162
147
11
123
28
16
6
96
106
92
83
3
69
109
51
45
1
57
44
77
71
102
154
140
34
46
7
8
21
32
65
143
17
166
79
171
10
53
110
103
61
68
20
91
122
134
126
170
157
156
131
58
94
80
164
9
67
169
95
14
59
113
19
167
33
129
25
132
142
12
13
4
136
118
116
111
76
37
74
145
151
72
52
56
66
23
130
161
49
97
70
43
100
138
73
64
119
127
137
153
24
81
40
50
15
82
108
93
112
88
165
135
144
101
-1
EOF
